c turning on binary mode checking
c parsing input formula with 932 variables and 2994 clauses
c finished parsing, read 84426259 bytes from proof file
c detected empty clause; start verification via backward checking
c 2322 of 2994 clauses in core                            
c 640200 of 1489972 lemmas in core using 25191782 resolution steps
c 0 RAT lemmas in core; 519479 redundant literals in core lemmas
s VERIFIED
c verification time: 208.088 seconds
